plate_width = 9;
n_circuits = 5;
n_shapes = 9;
widths = [3, 3, 3, 3, 3];
lengths = [3, 4, 5, 6, 9];
sizes = [| 3, 3 | 3, 4 | 4, 3 | 3, 5 | 5, 3 | 3, 6 | 6, 3 | 3, 9 | 9, 3 |];
offsets = [| 0, 0 | 0, 0 | 0, 0 | 0, 0 | 0, 0 | 0, 0 | 0, 0 | 0, 0 | 0, 0 |];
shapes = [{1}, {2}, {3}, {4}, {5}, {6}, {7}, {8}, {9}];
valid_shapes = [{1}, {2, 3}, {4, 5}, {6, 7}, {8, 9}];